networks/zoo_48_441/zoo_48_441-lower.txt
Number of groups: 21
Flow 1: {1 2 0} {2 26 0} 
Flow 2: {1 20 0} {20 3 0} {3 27 0} 
Flow 3: {20 16 0} {16 4 0} {4 28 0} 
Flow 4: {2 19 0} {19 5 0} {5 29 0} 
Flow 5: {20 17 0} {17 7 0} {7 31 0} 
Flow 6: {19 8 0} {8 32 0} 
Flow 7: {20 18 0} {18 9 0} {9 33 0} 
Flow 8: {3 13 0} {13 12 0} {12 36 0} 
Flow 9: {22 21 0} {21 14 0} {14 38 0} 
Flow 9: {20 22 0} Flow 10: {21 15 0} {15 39 0} 
Flow 11: {16 40 0} 
Flow 12: {17 41 0} 
Flow 13: {19 43 0} 
Flow 14: {20 44 0} 
Flow 15: {21 45 0} 
Flow 16: {22 46 0} 
Flow 17: {20 24 0} {24 23 0} {23 47 0} 
Flow 18: {24 48 0} 
Flow 19: {2 1 0} {1 25 0} 
Flow 23: {19 18 0} {18 7 0} Flow 25: {19 6 0} {6 9 0} Flow 37: {3 20 0} {20 1 0} Flow 38: {24 5 0} Flow 39: {18 19 0} Flow 51: {4 24 0} {24 20 0} Flow 52: {5 19 0} {19 2 0} Flow 55: {6 30 0} 
Flow 57: {5 8 0} Flow 59: {4 23 0} {23 21 0} {21 12 0} Flow 60: {13 37 0} 
Flow 62: {23 15 0} Flow 63: {4 16 0} Flow 73: {5 24 0} Flow 74: {24 4 0} Flow 89: {6 19 0} Flow 91: {9 18 0} {18 20 0} Flow 102: {7 17 0} Flow 109: {17 20 0} Flow 110: {7 18 0} Flow 128: {8 19 0} Flow 130: {8 5 0} Flow 149: {9 6 0} Flow 166: {10 6 0} Flow 168: {10 9 0} Flow 186: {11 22 0} {22 20 0} Flow 201: {21 23 0} Flow 203: {12 21 0} {21 22 0} Flow 205: {12 13 0} {13 3 0} Flow 206: {23 4 0} Flow 207: {23 24 0} Flow 238: {14 21 0} Flow 256: {15 21 0} Flow 259: {15 23 0} Flow 273: {16 20 0} Time taken running everything: 1 seconds
