networks/zoo_48_441/zoo_48_441-lower.sol
<?xml version = "1.0" encoding="UTF-8" standalone="yes"?>
<CPLEXSolution version="1.2">
 <header
   problemName="networks/zoo_48_441/zoo_48_441-lower.lp"
   solutionName="incumbent"
   solutionIndex="-1"
   objectiveValue="24"
   solutionTypeValue="3"
   solutionTypeString="primal"
   solutionStatusValue="101"
   solutionStatusString="integer optimal solution"
   solutionMethodString="mip"
   primalFeasible="1"
   dualFeasible="1"
   MIPNodes="0"
   MIPIterations="1146"
   writeLevel="3"/>
 <quality
   epInt="1.0000000000000001e-05"
   epRHS="9.9999999999999995e-07"
   maxIntInfeas="0"
   maxPrimalInfeas="0"
   maxX="1"
   maxSlack="1"/>
 <variables>
  <variable name="Y(4,5)" index="139" value="1"/>
  <variable name="Y(32,20)" index="1414" value="1"/>
  <variable name="Y(49,23)" index="2182" value="1"/>
  <variable name="Y(52,2)" index="2296" value="1"/>
  <variable name="Y(76,8)" index="3382" value="1"/>
  <variable name="Y(120,16)" index="5370" value="1"/>
  <variable name="Y(134,7)" index="5991" value="1"/>
  <variable name="Y(140,4)" index="6258" value="1"/>
  <variable name="Y(172,19)" index="7713" value="1"/>
  <variable name="Y(175,13)" index="7842" value="1"/>
  <variable name="Y(194,15)" index="8699" value="1"/>
  <variable name="Y(205,3)" index="9182" value="1"/>
  <variable name="Y(220,24)" index="9878" value="1"/>
  <variable name="Y(228,14)" index="10228" value="1"/>
  <variable name="Y(246,12)" index="11036" value="1"/>
  <variable name="Y(259,4)" index="11613" value="1"/>
  <variable name="Y(266,17)" index="11941" value="1"/>
  <variable name="Y(273,1)" index="12240" value="1"/>
  <variable name="Y(285,23)" index="12802" value="1"/>
  <variable name="Y(298,6)" index="13370" value="1"/>
  <variable name="Y(341,9)" index="15308" value="1"/>
  <variable name="Y(348,21)" index="15635" value="1"/>
  <variable name="Y(366,19)" index="16443" value="1"/>
  <variable name="Y(440,22)" index="19776" value="1"/>
  <variable name="X(1,2,4)" index="19848" value="1"/>
  <variable name="X(1,20,32)" index="20317" value="1"/>
  <variable name="X(1,25,273)" index="20999" value="1"/>
  <variable name="X(2,1,32)" index="21199" value="1"/>
  <variable name="X(2,19,4)" index="21612" value="1"/>
  <variable name="X(2,26,52)" index="22101" value="1"/>
  <variable name="X(3,13,175)" index="22665" value="1"/>
  <variable name="X(3,20,49)" index="22980" value="1"/>
  <variable name="X(3,27,205)" index="23577" value="1"/>
  <variable name="X(4,16,140)" index="23953" value="1"/>
  <variable name="X(4,23,285)" index="24539" value="1"/>
  <variable name="X(4,24,52)" index="24747" value="1"/>
  <variable name="X(4,28,259)" index="25395" value="1"/>
  <variable name="X(5,8,76)" index="25653" value="1"/>
  <variable name="X(5,19,52)" index="26070" value="1"/>
  <variable name="X(5,24,140)" index="26599" value="1"/>
  <variable name="X(5,29,4)" index="26904" value="1"/>
  <variable name="X(6,9,341)" index="27682" value="1"/>
  <variable name="X(6,19,172)" index="27954" value="1"/>
  <variable name="X(6,30,298)" index="28521" value="1"/>
  <variable name="X(7,17,120)" index="28784" value="1"/>
  <variable name="X(7,18,298)" index="29403" value="1"/>
  <variable name="X(7,31,134)" index="29680" value="1"/>
  <variable name="X(8,5,140)" index="30127" value="1"/>
  <variable name="X(8,19,134)" index="30562" value="1"/>
  <variable name="X(8,32,76)" index="30945" value="1"/>
  <variable name="X(9,6,298)" index="31608" value="1"/>
  <variable name="X(9,18,175)" index="31926" value="1"/>
  <variable name="X(9,33,341)" index="32533" value="1"/>
  <variable name="X(10,6,172)" index="32805" value="1"/>
  <variable name="X(10,9,175)" index="33249" value="1"/>
  <variable name="X(11,22,194)" index="33709" value="1"/>
  <variable name="X(12,13,205)" index="34161" value="1"/>
  <variable name="X(12,21,228)" index="34625" value="1"/>
  <variable name="X(12,36,246)" index="35084" value="1"/>
  <variable name="X(13,3,205)" index="35484" value="1"/>
  <variable name="X(13,12,228)" index="35948" value="1"/>
  <variable name="X(13,37,175)" index="36336" value="1"/>
  <variable name="X(14,21,246)" index="36848" value="1"/>
  <variable name="X(14,38,228)" index="37271" value="1"/>
  <variable name="X(15,21,266)" index="37750" value="1"/>
  <variable name="X(15,23,259)" index="38184" value="1"/>
  <variable name="X(15,39,194)" index="38560" value="1"/>
  <variable name="X(16,4,285)" index="39092" value="1"/>
  <variable name="X(16,20,273)" index="39521" value="1"/>
  <variable name="X(16,40,120)" index="39809" value="1"/>
  <variable name="X(17,7,298)" index="40428" value="1"/>
  <variable name="X(17,20,120)" index="40691" value="1"/>
  <variable name="X(17,41,266)" index="41278" value="1"/>
  <variable name="X(18,7,134)" index="41587" value="1"/>
  <variable name="X(18,9,298)" index="42192" value="1"/>
  <variable name="X(18,19,366)" index="42701" value="1"/>
  <variable name="X(18,20,175)" index="42951" value="1"/>
  <variable name="X(19,2,52)" index="43269" value="1"/>
  <variable name="X(19,5,4)" index="43662" value="1"/>
  <variable name="X(19,6,341)" index="44440" value="1"/>
  <variable name="X(19,8,172)" index="44712" value="1"/>
  <variable name="X(19,18,134)" index="45115" value="1"/>
  <variable name="X(19,43,366)" index="45788" value="1"/>
  <variable name="X(20,1,273)" index="46136" value="1"/>
  <variable name="X(20,3,175)" index="46479" value="1"/>
  <variable name="X(20,16,120)" index="46865" value="1"/>
  <variable name="X(20,17,266)" index="47452" value="1"/>
  <variable name="X(20,18,366)" index="47993" value="1"/>
  <variable name="X(20,22,440)" index="48508" value="1"/>
  <variable name="X(20,24,49)" index="48558" value="1"/>
  <variable name="X(20,44,32)" index="48982" value="1"/>
  <variable name="X(21,12,246)" index="49637" value="1"/>
  <variable name="X(21,14,228)" index="50060" value="1"/>
  <variable name="X(21,15,194)" index="50467" value="1"/>
  <variable name="X(21,22,266)" index="50980" value="1"/>
  <variable name="X(21,23,220)" index="51375" value="1"/>
  <variable name="X(21,45,348)" index="51944" value="1"/>
  <variable name="X(22,20,266)" index="52303" value="1"/>
  <variable name="X(22,21,194)" index="52672" value="1"/>
  <variable name="X(22,46,440)" index="53359" value="1"/>
  <variable name="X(23,4,259)" index="53619" value="1"/>
  <variable name="X(23,15,285)" index="54086" value="1"/>
  <variable name="X(23,21,348)" index="54590" value="1"/>
  <variable name="X(23,24,220)" index="54903" value="1"/>
  <variable name="X(23,47,49)" index="55173" value="1"/>
  <variable name="X(24,4,140)" index="55705" value="1"/>
  <variable name="X(24,5,52)" index="56058" value="1"/>
  <variable name="X(24,20,440)" index="56887" value="1"/>
  <variable name="X(24,23,49)" index="56937" value="1"/>
  <variable name="X(24,48,220)" index="57549" value="1"/>
 </variables>
</CPLEXSolution>
